p tw 57 6841 2 
1 3 
1 4 
1 5 
1 6 
1 7 
1 8 
1 9 
1 10 
1 11 
1 12 
1 13 
1 14 
1 15 
1 16 
1 17 
1 18 
1 25 
1 26 
1 27 
1 28 
1 29 
1 30 
1 31 
2 3 
2 4 
2 5 
2 6 
2 7 
2 8 
2 9 
2 10 
2 17 
2 18 
2 19 
2 20 
2 21 
2 22 
2 23 
2 24 
2 31 
2 36 
2 37 
2 45 
2 48 
2 52 
2 57 
3 4 
3 5 
3 6 
3 7 
3 8 
3 9 
3 11 
3 12 
3 19 
3 20 
3 25 
3 26 
3 32 
3 33 
3 34 
3 35 
3 36 
3 37 
3 38 
3 39 
3 40 
3 41 
4 5 
4 6 
4 7 
4 8 
4 9 
4 10 
4 13 
4 24 
4 26 
4 29 
4 32 
4 35 
4 38 
4 42 
4 43 
4 44 
4 45 
4 46 
4 49 
4 55 
4 57 
5 6 
5 7 
5 8 
5 9 
5 12 
5 16 
5 21 
5 23 
5 27 
5 30 
5 33 
5 36 
5 41 
5 42 
5 46 
5 47 
5 48 
5 49 
5 50 
5 55 
6 7 
6 8 
6 9 
6 13 
6 15 
6 18 
6 19 
6 27 
6 34 
6 37 
6 41 
6 43 
6 44 
6 47 
6 50 
6 51 
6 54 
6 56 
6 57 
7 8 
7 9 
7 14 
7 16 
7 22 
7 24 
7 25 
7 28 
7 33 
7 38 
7 40 
7 43 
7 44 
7 48 
7 50 
7 52 
7 53 
7 54 
8 9 
8 11 
8 15 
8 22 
8 23 
8 29 
8 31 
8 32 
8 39 
8 40 
8 42 
8 47 
8 51 
8 52 
8 53 
8 55 
8 56 
9 14 
9 17 
9 20 
9 21 
9 28 
9 30 
9 34 
9 35 
9 39 
9 45 
9 46 
9 49 
9 51 
9 53 
9 54 
9 56 
10 11 
10 12 
10 13 
10 14 
10 15 
10 16 
10 17 
10 18 
10 19 
10 20 
10 21 
10 22 
10 23 
10 24 
10 26 
10 32 
10 42 
10 43 
10 44 
10 45 
10 46 
11 12 
11 13 
11 14 
11 15 
11 16 
11 17 
11 19 
11 22 
11 25 
11 31 
11 32 
11 33 
11 34 
11 35 
11 36 
11 40 
11 42 
11 51 
11 55 
11 56 
12 13 
12 14 
12 15 
12 16 
12 17 
12 20 
12 21 
12 26 
12 27 
12 33 
12 37 
12 38 
12 39 
12 40 
12 41 
12 42 
12 47 
12 48 
12 49 
13 14 
13 15 
13 16 
13 17 
13 18 
13 24 
13 29 
13 34 
13 35 
13 37 
13 38 
13 43 
13 47 
13 49 
13 50 
13 51 
13 55 
13 57 
14 15 
14 16 
14 17 
14 21 
14 22 
14 28 
14 30 
14 33 
14 35 
14 38 
14 39 
14 44 
14 45 
14 50 
14 51 
14 52 
14 54 
15 16 
15 17 
15 19 
15 23 
15 27 
15 29 
15 32 
15 39 
15 41 
15 44 
15 47 
15 52 
15 53 
15 54 
15 56 
15 57 
16 17 
16 23 
16 24 
16 25 
16 30 
16 36 
16 40 
16 41 
16 43 
16 46 
16 48 
16 50 
16 53 
16 54 
16 55 
17 20 
17 28 
17 31 
17 34 
17 36 
17 37 
17 45 
17 46 
17 48 
17 49 
17 52 
17 53 
17 56 
17 57 
18 19 
18 20 
18 21 
18 22 
18 23 
18 24 
18 25 
18 26 
18 27 
18 28 
18 29 
18 30 
18 31 
18 34 
18 37 
18 43 
18 47 
18 50 
18 51 
19 20 
19 21 
19 22 
19 23 
19 24 
19 25 
19 27 
19 32 
19 33 
19 34 
19 35 
19 36 
19 41 
19 44 
19 54 
19 56 
19 57 
20 21 
20 22 
20 23 
20 24 
20 26 
20 28 
20 34 
20 37 
20 38 
20 39 
20 40 
20 41 
20 46 
20 49 
20 53 
20 56 
21 22 
21 23 
21 24 
21 27 
21 30 
21 33 
21 35 
21 39 
21 42 
21 45 
21 47 
21 48 
21 49 
21 51 
21 54 
22 23 
22 24 
22 28 
22 31 
22 33 
22 38 
22 40 
22 42 
22 44 
22 50 
22 51 
22 52 
22 55 
22 56 
23 24 
23 29 
23 30 
23 32 
23 36 
23 39 
23 41 
23 46 
23 47 
23 50 
23 52 
23 53 
23 55 
24 25 
24 29 
24 35 
24 38 
24 40 
24 43 
24 48 
24 49 
24 53 
24 54 
24 55 
24 57 
25 26 
25 27 
25 28 
25 29 
25 30 
25 31 
25 32 
25 33 
25 34 
25 35 
25 36 
25 40 
25 43 
25 48 
25 53 
25 54 
26 27 
26 28 
26 29 
26 30 
26 31 
26 32 
26 37 
26 38 
26 39 
26 40 
26 41 
26 42 
26 43 
26 44 
26 45 
26 46 
27 28 
27 29 
27 30 
27 31 
27 33 
27 41 
27 42 
27 44 
27 47 
27 48 
27 49 
27 54 
27 56 
27 57 
28 29 
28 30 
28 31 
28 33 
28 34 
28 38 
28 44 
28 46 
28 49 
28 50 
28 52 
28 53 
28 56 
29 30 
29 31 
29 32 
29 35 
29 38 
29 39 
29 47 
29 49 
29 52 
29 53 
29 55 
29 57 
30 31 
30 35 
30 36 
30 39 
30 41 
30 45 
30 46 
30 50 
30 51 
30 54 
30 55 
31 36 
31 37 
31 40 
31 42 
31 45 
31 48 
31 51 
31 52 
31 55 
31 56 
31 57 
32 33 
32 34 
32 35 
32 36 
32 39 
32 42 
32 43 
32 44 
32 45 
32 46 
32 47 
32 52 
32 53 
33 34 
33 35 
33 36 
33 38 
33 42 
33 44 
33 47 
33 48 
33 49 
33 50 
33 52 
34 35 
34 36 
34 37 
34 43 
34 46 
34 47 
34 49 
34 50 
34 51 
34 53 
34 56 
35 36 
35 38 
35 39 
35 45 
35 49 
35 51 
35 54 
35 55 
35 57 
36 37 
36 41 
36 45 
36 46 
36 48 
36 50 
36 52 
36 55 
36 57 
37 38 
37 39 
37 40 
37 41 
37 43 
37 45 
37 47 
37 48 
37 50 
37 51 
37 52 
37 57 
38 39 
38 40 
38 41 
38 44 
38 49 
38 50 
38 52 
38 55 
38 57 
39 40 
39 41 
39 45 
39 47 
39 51 
39 52 
39 53 
39 54 
40 41 
40 42 
40 43 
40 48 
40 51 
40 53 
40 54 
40 55 
40 56 
41 44 
41 46 
41 50 
41 54 
41 55 
41 56 
41 57 
42 43 
42 44 
42 45 
42 46 
42 47 
42 48 
42 49 
42 51 
42 55 
42 56 
43 44 
43 45 
43 46 
43 47 
43 48 
43 50 
43 51 
43 53 
43 54 
44 45 
44 46 
44 50 
44 52 
44 54 
44 56 
44 57 
45 46 
45 48 
45 51 
45 52 
45 54 
45 57 
46 49 
46 50 
46 53 
46 55 
46 56 
47 48 
47 49 
47 50 
47 51 
47 52 
47 53 
48 49 
48 52 
48 53 
48 54 
48 57 
49 53 
49 55 
49 56 
49 57 
50 51 
50 52 
50 55 
51 54 
51 55 
51 56 
52 53 
52 57 
53 54 
53 56 
54 56 
54 57 
55 56 
55 57 
56 57 
